
Gurobi 6.5.2 (win64) logging started 04/04/17 13:03:08


Gurobi 6.5.2 (win64) logging started 04/04/17 13:03:09


Gurobi 6.5.2 (win64) logging started 04/04/17 13:03:11


Gurobi 6.5.2 (win64) logging started 04/04/17 13:08:44


Gurobi 6.5.2 (win64) logging started 04/04/17 13:08:45


Gurobi 6.5.2 (win64) logging started 04/04/17 13:08:47


Gurobi 6.5.2 (win64) logging started 04/04/17 13:13:18


Gurobi 6.5.2 (win64) logging started 04/04/17 13:13:19


Gurobi 6.5.2 (win64) logging started 04/04/17 13:13:20


Gurobi 6.5.2 (win64) logging started 04/04/17 13:25:00


Gurobi 6.5.2 (win64) logging started 04/04/17 13:25:01


Gurobi 6.5.2 (win64) logging started 04/04/17 13:25:03


Gurobi 6.5.2 (win64) logging started 04/04/17 14:13:56


Gurobi 6.5.2 (win64) logging started 04/04/17 14:13:57


Gurobi 6.5.2 (win64) logging started 04/04/17 14:13:59


Gurobi 6.5.2 (win64) logging started 04/04/17 14:39:24


Gurobi 6.5.2 (win64) logging started 04/04/17 14:39:25


Gurobi 6.5.2 (win64) logging started 04/04/17 14:39:26


Gurobi 6.5.2 (win64) logging started 04/04/17 14:39:27


Gurobi 6.5.2 (win64) logging started 04/04/17 14:39:29


Gurobi 6.5.2 (win64) logging started 04/04/17 14:39:30


Gurobi 6.5.2 (win64) logging started 04/04/17 14:39:31


Gurobi 6.5.2 (win64) logging started 04/04/17 14:39:32


Gurobi 6.5.2 (win64) logging started 04/04/17 14:39:33


Gurobi 6.5.2 (win64) logging started 04/04/17 14:39:35


Gurobi 6.5.2 (win64) logging started 04/04/17 14:39:36


Gurobi 6.5.2 (win64) logging started 04/04/17 14:39:37


Gurobi 6.5.2 (win64) logging started 04/04/17 14:39:38


Gurobi 6.5.2 (win64) logging started 04/04/17 14:39:40


Gurobi 6.5.2 (win64) logging started 04/04/17 14:39:41


Gurobi 6.5.2 (win64) logging started 04/04/17 14:39:42


Gurobi 6.5.2 (win64) logging started 04/04/17 14:39:43


Gurobi 6.5.2 (win64) logging started 04/04/17 14:39:45


Gurobi 6.5.2 (win64) logging started 04/04/17 14:39:46


Gurobi 6.5.2 (win64) logging started 04/04/17 14:39:47


Gurobi 6.5.2 (win64) logging started 04/04/17 14:39:48


Gurobi 6.5.2 (win64) logging started 04/04/17 14:39:49


Gurobi 6.5.2 (win64) logging started 04/04/17 14:39:50


Gurobi 6.5.2 (win64) logging started 04/04/17 14:39:55


Gurobi 6.5.2 (win64) logging started 04/04/17 16:41:41


Gurobi 6.5.2 (win64) logging started 04/04/17 16:41:43


Gurobi 6.5.2 (win64) logging started 04/04/17 16:41:44


Gurobi 6.5.2 (win64) logging started 04/04/17 16:43:46


Gurobi 6.5.2 (win64) logging started 04/04/17 16:55:46


Gurobi 6.5.2 (win64) logging started 04/04/17 16:55:47


Gurobi 6.5.2 (win64) logging started 04/04/17 16:55:49


Gurobi 6.5.2 (win64) logging started 04/04/17 17:02:20


Gurobi 6.5.2 (win64) logging started 04/04/17 17:02:21


Gurobi 6.5.2 (win64) logging started 04/04/17 17:02:23


Gurobi 6.5.2 (win64) logging started 04/04/17 17:03:44


Gurobi 6.5.2 (win64) logging started 04/04/17 17:03:45


Gurobi 6.5.2 (win64) logging started 04/04/17 17:03:46


Gurobi 6.5.2 (win64) logging started 04/04/17 17:03:47


Gurobi 6.5.2 (win64) logging started 04/04/17 17:03:48


Gurobi 6.5.2 (win64) logging started 04/04/17 17:03:49


Gurobi 6.5.2 (win64) logging started 04/04/17 17:03:50


Gurobi 6.5.2 (win64) logging started 04/04/17 17:03:51


Gurobi 6.5.2 (win64) logging started 04/04/17 17:03:52


Gurobi 6.5.2 (win64) logging started 04/04/17 17:03:53


Gurobi 6.5.2 (win64) logging started 04/04/17 17:03:54


Gurobi 6.5.2 (win64) logging started 04/04/17 17:03:55


Gurobi 6.5.2 (win64) logging started 04/04/17 17:03:56


Gurobi 6.5.2 (win64) logging started 04/04/17 17:03:57


Gurobi 6.5.2 (win64) logging started 04/04/17 17:03:58


Gurobi 6.5.2 (win64) logging started 04/04/17 17:03:59


Gurobi 6.5.2 (win64) logging started 04/04/17 17:04:00


Gurobi 6.5.2 (win64) logging started 04/04/17 17:04:01


Gurobi 6.5.2 (win64) logging started 04/04/17 17:04:02


Gurobi 6.5.2 (win64) logging started 04/04/17 17:04:02


Gurobi 6.5.2 (win64) logging started 04/04/17 17:04:04


Gurobi 6.5.2 (win64) logging started 04/04/17 17:04:05


Gurobi 6.5.2 (win64) logging started 04/04/17 17:04:06


Gurobi 6.5.2 (win64) logging started 04/04/17 17:04:09


Gurobi 6.5.2 (win64) logging started 04/04/17 17:11:14


Gurobi 6.5.2 (win64) logging started 04/04/17 17:11:16


Gurobi 6.5.2 (win64) logging started 04/04/17 17:11:17


Gurobi 6.5.2 (win64) logging started 04/04/17 17:11:23


Gurobi 6.5.2 (win64) logging started 04/04/17 17:11:24


Gurobi 6.5.2 (win64) logging started 04/04/17 17:11:25


Gurobi 6.5.2 (win64) logging started 04/04/17 17:22:51


Gurobi 6.5.2 (win64) logging started 04/04/17 17:22:52


Gurobi 6.5.2 (win64) logging started 04/04/17 17:22:54


Gurobi 6.5.2 (win64) logging started 04/04/17 17:28:48


Gurobi 6.5.2 (win64) logging started 04/04/17 17:28:49


Gurobi 6.5.2 (win64) logging started 04/04/17 17:28:51


Gurobi 6.5.2 (win64) logging started 04/04/17 17:33:36


Gurobi 6.5.2 (win64) logging started 04/04/17 17:33:37


Gurobi 6.5.2 (win64) logging started 04/04/17 17:33:39


Gurobi 6.5.2 (win64) logging started 04/04/17 17:35:49


Gurobi 6.5.2 (win64) logging started 04/04/17 17:35:50


Gurobi 6.5.2 (win64) logging started 04/04/17 17:35:52


Gurobi 6.5.2 (win64) logging started 04/04/17 17:36:01


Gurobi 6.5.2 (win64) logging started 04/04/17 17:36:04


Gurobi 6.5.2 (win64) logging started 04/04/17 17:36:05


Gurobi 6.5.2 (win64) logging started 04/04/17 17:36:12


Gurobi 6.5.2 (win64) logging started 04/04/17 17:36:13


Gurobi 6.5.2 (win64) logging started 04/04/17 17:36:23


Gurobi 6.5.2 (win64) logging started 04/04/17 17:36:24


Gurobi 6.5.2 (win64) logging started 04/04/17 17:36:36


Gurobi 6.5.2 (win64) logging started 04/04/17 17:36:37


Gurobi 6.5.2 (win64) logging started 04/04/17 17:36:43


Gurobi 6.5.2 (win64) logging started 04/04/17 17:36:45


Gurobi 6.5.2 (win64) logging started 04/04/17 17:36:56


Gurobi 6.5.2 (win64) logging started 04/04/17 17:36:58


Gurobi 6.5.2 (win64) logging started 04/04/17 17:37:04


Gurobi 6.5.2 (win64) logging started 04/04/17 17:37:06


Gurobi 6.5.2 (win64) logging started 04/04/17 17:37:16


Gurobi 6.5.2 (win64) logging started 04/04/17 17:37:17


Gurobi 6.5.2 (win64) logging started 04/04/17 17:37:23


Gurobi 6.5.2 (win64) logging started 04/04/17 17:37:24


Gurobi 6.5.2 (win64) logging started 04/04/17 17:37:35


Gurobi 6.5.2 (win64) logging started 04/04/17 17:37:37


Gurobi 6.5.2 (win64) logging started 04/04/17 17:37:42


Gurobi 6.5.2 (win64) logging started 04/04/17 17:37:43


Gurobi 6.5.2 (win64) logging started 04/04/17 17:37:56


Gurobi 6.5.2 (win64) logging started 04/04/17 18:17:41


Gurobi 6.5.2 (win64) logging started 04/04/17 18:17:43


Gurobi 6.5.2 (win64) logging started 04/04/17 18:17:45


Gurobi 6.5.2 (win64) logging started 04/04/17 18:17:47


Gurobi 6.5.2 (win64) logging started 04/04/17 18:17:49


Gurobi 6.5.2 (win64) logging started 04/04/17 18:17:50


Gurobi 6.5.2 (win64) logging started 04/04/17 18:17:52


Gurobi 6.5.2 (win64) logging started 04/04/17 18:17:54


Gurobi 6.5.2 (win64) logging started 04/04/17 18:17:56


Gurobi 6.5.2 (win64) logging started 04/04/17 18:17:57


Gurobi 6.5.2 (win64) logging started 04/04/17 18:17:59


Gurobi 6.5.2 (win64) logging started 04/04/17 18:18:01


Gurobi 6.5.2 (win64) logging started 04/04/17 18:18:03


Gurobi 6.5.2 (win64) logging started 04/04/17 18:18:05


Gurobi 6.5.2 (win64) logging started 04/04/17 18:18:06


Gurobi 6.5.2 (win64) logging started 04/04/17 18:18:09


Gurobi 6.5.2 (win64) logging started 04/04/17 18:18:10


Gurobi 6.5.2 (win64) logging started 04/04/17 18:18:12


Gurobi 6.5.2 (win64) logging started 04/04/17 18:18:14


Gurobi 6.5.2 (win64) logging started 04/04/17 18:18:16


Gurobi 6.5.2 (win64) logging started 04/04/17 18:18:18


Gurobi 6.5.2 (win64) logging started 04/04/17 18:18:20


Gurobi 6.5.2 (win64) logging started 04/04/17 18:18:22


Gurobi 6.5.2 (win64) logging started 04/04/17 18:18:27


Gurobi 6.5.2 (win64) logging started 04/04/17 18:25:25


Gurobi 6.5.2 (win64) logging started 04/04/17 18:25:27


Gurobi 6.5.2 (win64) logging started 04/04/17 18:25:31


Gurobi 6.5.2 (win64) logging started 04/04/17 18:27:35


Gurobi 6.5.2 (win64) logging started 04/04/17 18:27:36


Gurobi 6.5.2 (win64) logging started 04/04/17 18:27:37


Gurobi 6.5.2 (win64) logging started 04/04/17 18:28:30


Gurobi 6.5.2 (win64) logging started 04/04/17 18:39:03


Gurobi 6.5.2 (win64) logging started 04/04/17 18:39:04


Gurobi 6.5.2 (win64) logging started 04/04/17 18:39:05


Gurobi 6.5.2 (win64) logging started 04/04/17 18:40:24


Gurobi 6.5.2 (win64) logging started 04/04/17 18:41:04


Gurobi 6.5.2 (win64) logging started 04/04/17 18:41:56


Gurobi 6.5.2 (win64) logging started 04/04/17 18:42:27


Gurobi 6.5.2 (win64) logging started 04/04/17 18:44:14


Gurobi 6.5.2 (win64) logging started 04/04/17 18:44:42


Gurobi 6.5.2 (win64) logging started 04/04/17 18:45:32


Gurobi 6.5.2 (win64) logging started 04/04/17 18:46:20


Gurobi 6.5.2 (win64) logging started 04/04/17 18:48:15


Gurobi 6.5.2 (win64) logging started 04/04/17 18:48:39


Gurobi 6.5.2 (win64) logging started 04/04/17 18:49:09


Gurobi 6.5.2 (win64) logging started 04/04/17 18:49:50


Gurobi 6.5.2 (win64) logging started 04/04/17 18:50:25


Gurobi 6.5.2 (win64) logging started 04/04/17 18:50:51


Gurobi 6.5.2 (win64) logging started 04/04/17 18:51:18


Gurobi 6.5.2 (win64) logging started 04/04/17 18:52:01


Gurobi 6.5.2 (win64) logging started 04/05/17 09:50:20


Gurobi 6.5.2 (win64) logging started 04/05/17 09:50:58


Gurobi 6.5.2 (win64) logging started 04/05/17 09:51:26


Gurobi 6.5.2 (win64) logging started 04/05/17 09:52:51


Gurobi 6.5.2 (win64) logging started 04/05/17 09:52:53


Gurobi 6.5.2 (win64) logging started 04/05/17 09:53:32


Gurobi 6.5.2 (win64) logging started 04/05/17 09:53:35


Gurobi 6.5.2 (win64) logging started 04/05/17 09:53:35


Gurobi 6.5.2 (win64) logging started 04/05/17 09:53:38


Gurobi 6.5.2 (win64) logging started 04/05/17 09:53:39


Gurobi 6.5.2 (win64) logging started 04/05/17 09:53:42


Gurobi 6.5.2 (win64) logging started 04/05/17 09:53:42


Gurobi 6.5.2 (win64) logging started 04/05/17 09:53:45


Gurobi 6.5.2 (win64) logging started 04/05/17 09:53:46


Gurobi 6.5.2 (win64) logging started 04/05/17 09:53:49


Gurobi 6.5.2 (win64) logging started 04/05/17 09:53:50


Gurobi 6.5.2 (win64) logging started 04/05/17 09:53:52


Gurobi 6.5.2 (win64) logging started 04/05/17 09:53:53


Gurobi 6.5.2 (win64) logging started 04/05/17 09:53:56


Gurobi 6.5.2 (win64) logging started 04/05/17 09:53:56


Gurobi 6.5.2 (win64) logging started 04/05/17 09:53:59


Gurobi 6.5.2 (win64) logging started 04/05/17 09:54:00


Gurobi 6.5.2 (win64) logging started 04/05/17 09:54:03


Gurobi 6.5.2 (win64) logging started 04/05/17 09:54:04


Gurobi 6.5.2 (win64) logging started 04/05/17 09:54:06


Gurobi 6.5.2 (win64) logging started 04/05/17 09:54:07


Gurobi 6.5.2 (win64) logging started 04/05/17 09:54:10


Gurobi 6.5.2 (win64) logging started 04/05/17 09:54:11


Gurobi 6.5.2 (win64) logging started 04/05/17 09:54:14


Gurobi 6.5.2 (win64) logging started 04/05/17 10:00:55


Gurobi 6.5.2 (win64) logging started 04/05/17 10:02:22


Gurobi 6.5.2 (win64) logging started 04/05/17 10:03:02


Gurobi 6.5.2 (win64) logging started 04/05/17 10:03:03


Gurobi 6.5.2 (win64) logging started 04/05/17 10:03:05


Gurobi 6.5.2 (win64) logging started 04/05/17 10:03:29


Gurobi 6.5.2 (win64) logging started 04/05/17 10:04:37


Gurobi 6.5.2 (win64) logging started 04/05/17 10:05:07


Gurobi 6.5.2 (win64) logging started 04/05/17 10:05:42


Gurobi 6.5.2 (win64) logging started 04/05/17 10:05:43


Gurobi 6.5.2 (win64) logging started 04/05/17 10:05:44


Gurobi 6.5.2 (win64) logging started 04/05/17 10:05:45


Gurobi 6.5.2 (win64) logging started 04/05/17 10:05:46


Gurobi 6.5.2 (win64) logging started 04/05/17 10:05:47


Gurobi 6.5.2 (win64) logging started 04/05/17 10:05:48


Gurobi 6.5.2 (win64) logging started 04/05/17 10:05:49


Gurobi 6.5.2 (win64) logging started 04/05/17 10:05:50


Gurobi 6.5.2 (win64) logging started 04/05/17 10:05:50


Gurobi 6.5.2 (win64) logging started 04/05/17 10:05:51


Gurobi 6.5.2 (win64) logging started 04/05/17 10:05:52


Gurobi 6.5.2 (win64) logging started 04/05/17 10:05:53


Gurobi 6.5.2 (win64) logging started 04/05/17 10:05:54


Gurobi 6.5.2 (win64) logging started 04/05/17 10:05:55


Gurobi 6.5.2 (win64) logging started 04/05/17 10:05:55


Gurobi 6.5.2 (win64) logging started 04/05/17 10:05:56


Gurobi 6.5.2 (win64) logging started 04/05/17 10:05:57


Gurobi 6.5.2 (win64) logging started 04/05/17 10:05:58


Gurobi 6.5.2 (win64) logging started 04/05/17 10:05:59


Gurobi 6.5.2 (win64) logging started 04/05/17 10:06:00


Gurobi 6.5.2 (win64) logging started 04/05/17 10:06:00


Gurobi 6.5.2 (win64) logging started 04/05/17 10:06:01


Gurobi 6.5.2 (win64) logging started 04/05/17 10:06:03


Gurobi 6.5.2 (win64) logging started 04/05/17 10:06:51


Gurobi 6.5.2 (win64) logging started 04/05/17 10:06:54


Gurobi 6.5.2 (win64) logging started 04/05/17 10:07:27


Gurobi 6.5.2 (win64) logging started 04/05/17 10:09:06


Gurobi 6.5.2 (win64) logging started 04/05/17 10:09:14


Gurobi 6.5.2 (win64) logging started 04/05/17 10:09:21


Gurobi 6.5.2 (win64) logging started 04/05/17 10:12:35


Gurobi 6.5.2 (win64) logging started 04/05/17 10:12:36


Gurobi 6.5.2 (win64) logging started 04/05/17 10:12:40


Gurobi 6.5.2 (win64) logging started 04/05/17 10:13:29


Gurobi 6.5.2 (win64) logging started 04/05/17 12:50:58


Gurobi 6.5.2 (win64) logging started 04/05/17 12:50:59


Gurobi 6.5.2 (win64) logging started 04/05/17 12:51:01


Gurobi 6.5.2 (win64) logging started 04/05/17 13:58:38


Gurobi 6.5.2 (win64) logging started 04/05/17 13:58:41


Gurobi 6.5.2 (win64) logging started 04/05/17 13:58:42


Gurobi 6.5.2 (win64) logging started 04/05/17 13:58:50


Gurobi 6.5.2 (win64) logging started 04/05/17 13:58:51


Gurobi 6.5.2 (win64) logging started 04/05/17 13:59:01


Gurobi 6.5.2 (win64) logging started 04/05/17 13:59:02


Gurobi 6.5.2 (win64) logging started 04/05/17 13:59:11


Gurobi 6.5.2 (win64) logging started 04/05/17 13:59:12


Gurobi 6.5.2 (win64) logging started 04/05/17 13:59:17


Gurobi 6.5.2 (win64) logging started 04/05/17 13:59:18


Gurobi 6.5.2 (win64) logging started 04/05/17 13:59:28


Gurobi 6.5.2 (win64) logging started 04/05/17 13:59:29


Gurobi 6.5.2 (win64) logging started 04/05/17 13:59:34


Gurobi 6.5.2 (win64) logging started 04/05/17 13:59:34


Gurobi 6.5.2 (win64) logging started 04/05/17 13:59:44


Gurobi 6.5.2 (win64) logging started 04/05/17 13:59:45


Gurobi 6.5.2 (win64) logging started 04/05/17 13:59:50


Gurobi 6.5.2 (win64) logging started 04/05/17 13:59:51


Gurobi 6.5.2 (win64) logging started 04/05/17 14:00:01


Gurobi 6.5.2 (win64) logging started 04/05/17 14:00:02


Gurobi 6.5.2 (win64) logging started 04/05/17 14:00:08


Gurobi 6.5.2 (win64) logging started 04/05/17 14:00:09


Gurobi 6.5.2 (win64) logging started 04/05/17 14:00:22


Gurobi 6.5.2 (win64) logging started 04/05/17 14:00:39


Gurobi 6.5.2 (win64) logging started 04/05/17 14:00:41


Gurobi 6.5.2 (win64) logging started 04/05/17 14:01:46


Gurobi 6.5.2 (win64) logging started 04/05/17 14:01:49


Gurobi 6.5.2 (win64) logging started 04/05/17 14:01:50


Gurobi 6.5.2 (win64) logging started 04/05/17 14:01:53


Gurobi 6.5.2 (win64) logging started 04/05/17 14:01:54


Gurobi 6.5.2 (win64) logging started 04/05/17 14:01:57


Gurobi 6.5.2 (win64) logging started 04/05/17 14:01:58


Gurobi 6.5.2 (win64) logging started 04/05/17 14:02:01


Gurobi 6.5.2 (win64) logging started 04/05/17 14:02:02


Gurobi 6.5.2 (win64) logging started 04/05/17 14:02:05


Gurobi 6.5.2 (win64) logging started 04/05/17 14:02:06


Gurobi 6.5.2 (win64) logging started 04/05/17 14:02:09


Gurobi 6.5.2 (win64) logging started 04/05/17 14:02:10


Gurobi 6.5.2 (win64) logging started 04/05/17 14:02:13


Gurobi 6.5.2 (win64) logging started 04/05/17 14:02:13


Gurobi 6.5.2 (win64) logging started 04/05/17 14:02:16


Gurobi 6.5.2 (win64) logging started 04/05/17 14:02:17


Gurobi 6.5.2 (win64) logging started 04/05/17 14:02:20


Gurobi 6.5.2 (win64) logging started 04/05/17 14:02:21


Gurobi 6.5.2 (win64) logging started 04/05/17 14:02:24


Gurobi 6.5.2 (win64) logging started 04/05/17 14:02:25


Gurobi 6.5.2 (win64) logging started 04/05/17 14:02:28


Gurobi 6.5.2 (win64) logging started 04/05/17 14:02:29


Gurobi 6.5.2 (win64) logging started 04/05/17 14:02:33


Gurobi 6.5.2 (win64) logging started 07/17/17 16:45:05


Gurobi 6.5.2 (win64) logging started 07/17/17 16:45:18


Gurobi 6.5.2 (win64) logging started 07/17/17 16:45:25


Gurobi 6.5.2 (win64) logging started 07/17/17 16:45:36


Gurobi 6.5.2 (win64) logging started 07/18/17 13:40:32


Gurobi 6.5.2 (win64) logging started 07/18/17 13:41:10


Gurobi 6.5.2 (win64) logging started 07/18/17 13:44:45


Gurobi 6.5.2 (win64) logging started 07/18/17 13:55:14


Gurobi 6.5.2 (win64) logging started 07/18/17 13:55:20


Gurobi 6.5.2 (win64) logging started 07/18/17 13:56:13


Gurobi 6.5.2 (win64) logging started 07/18/17 13:56:23


Gurobi 6.5.2 (win64) logging started 07/18/17 13:56:27


Gurobi 6.5.2 (win64) logging started 07/18/17 13:59:44


Gurobi 6.5.2 (win64) logging started 07/18/17 13:59:48


Gurobi 6.5.2 (win64) logging started 07/18/17 14:02:00


Gurobi 6.5.2 (win64) logging started 07/18/17 14:04:45


Gurobi 6.5.2 (win64) logging started 07/18/17 14:04:50


Gurobi 6.5.2 (win64) logging started 07/18/17 14:11:17


Gurobi 6.5.2 (win64) logging started 07/18/17 14:11:40


Gurobi 6.5.2 (win64) logging started 07/18/17 14:11:57


Gurobi 6.5.2 (win64) logging started 07/18/17 14:12:09


Gurobi 6.5.2 (win64) logging started 07/18/17 14:12:23


Gurobi 6.5.2 (win64) logging started 07/18/17 14:14:41


Gurobi 6.5.2 (win64) logging started 07/18/17 14:14:47


Gurobi 6.5.2 (win64) logging started 07/18/17 14:14:54


Gurobi 6.5.2 (win64) logging started 07/18/17 14:15:01


Gurobi 6.5.2 (win64) logging started 07/18/17 14:15:09


Gurobi 6.5.2 (win64) logging started 07/18/17 14:15:33


Gurobi 6.5.2 (win64) logging started 07/18/17 14:15:41


Gurobi 6.5.2 (win64) logging started 07/18/17 14:15:50


Gurobi 6.5.2 (win64) logging started 07/18/17 14:17:26


Gurobi 6.5.2 (win64) logging started 07/18/17 14:17:36


Gurobi 6.5.2 (win64) logging started 07/18/17 14:18:05


Gurobi 6.5.2 (win64) logging started 07/18/17 14:18:38


Gurobi 6.5.2 (win64) logging started 07/18/17 14:19:10


Gurobi 6.5.2 (win64) logging started 07/18/17 14:19:12


Gurobi 6.5.2 (win64) logging started 07/18/17 14:19:38


Gurobi 6.5.2 (win64) logging started 07/18/17 14:20:28


Gurobi 6.5.2 (win64) logging started 07/18/17 14:21:57


Gurobi 6.5.2 (win64) logging started 10/19/17 14:57:34


Gurobi 6.5.2 (win64) logging started 10/19/17 16:39:05


Gurobi 6.5.2 (win64) logging started 10/20/17 14:22:48


Gurobi 6.5.2 (win64) logging started 10/20/17 14:24:25


Gurobi 6.5.2 (win64) logging started 10/20/17 14:25:03


Gurobi 6.5.2 (win64) logging started 10/20/17 14:25:07


Gurobi 6.5.2 (win64) logging started 10/20/17 14:25:09


Gurobi 6.5.2 (win64) logging started 10/20/17 14:25:18


Gurobi 6.5.2 (win64) logging started 10/20/17 14:25:19


Gurobi 6.5.2 (win64) logging started 10/20/17 14:25:32


Gurobi 6.5.2 (win64) logging started 10/20/17 14:25:34


Gurobi 6.5.2 (win64) logging started 10/20/17 14:25:46


Gurobi 6.5.2 (win64) logging started 10/20/17 14:25:47


Gurobi 6.5.2 (win64) logging started 10/20/17 14:25:55


Gurobi 6.5.2 (win64) logging started 10/20/17 14:25:57


Gurobi 6.5.2 (win64) logging started 10/20/17 14:26:12


Gurobi 6.5.2 (win64) logging started 10/20/17 14:26:14


Gurobi 6.5.2 (win64) logging started 10/20/17 14:26:23


Gurobi 6.5.2 (win64) logging started 10/20/17 14:26:25


Gurobi 6.5.2 (win64) logging started 10/20/17 14:26:40


Gurobi 6.5.2 (win64) logging started 10/20/17 14:26:42


Gurobi 6.5.2 (win64) logging started 10/20/17 14:26:50


Gurobi 6.5.2 (win64) logging started 10/20/17 14:26:52


Gurobi 6.5.2 (win64) logging started 10/20/17 14:27:08


Gurobi 6.5.2 (win64) logging started 10/20/17 14:27:11


Gurobi 6.5.2 (win64) logging started 10/20/17 14:27:17


Gurobi 6.5.2 (win64) logging started 10/20/17 14:27:19


Gurobi 6.5.2 (win64) logging started 10/20/17 14:27:39


Gurobi 6.5.2 (win64) logging started 10/20/17 14:33:34


Gurobi 6.5.2 (win64) logging started 10/20/17 14:33:35


Gurobi 6.5.2 (win64) logging started 10/20/17 14:33:37


Gurobi 6.5.2 (win64) logging started 10/20/17 14:34:00


Gurobi 6.5.2 (win64) logging started 10/20/17 14:34:18


Gurobi 6.5.2 (win64) logging started 10/20/17 14:34:19


Gurobi 6.5.2 (win64) logging started 10/20/17 14:34:21


Gurobi 6.5.2 (win64) logging started 10/24/17 12:10:21


Gurobi 6.5.2 (win64) logging started 10/24/17 18:41:55


Gurobi 6.5.2 (win64) logging started 10/24/17 18:42:19


Gurobi 6.5.2 (win64) logging started 10/24/17 18:42:31


Gurobi 6.5.2 (win64) logging started 10/24/17 18:42:55


Gurobi 6.5.2 (win64) logging started 10/24/17 18:43:14


Gurobi 6.5.2 (win64) logging started 10/24/17 18:45:48


Gurobi 6.5.2 (win64) logging started 10/24/17 18:46:14


Gurobi 6.5.2 (win64) logging started 10/24/17 18:46:36


Gurobi 6.5.2 (win64) logging started 10/24/17 18:47:07


Gurobi 6.5.2 (win64) logging started 10/25/17 17:58:59


Gurobi 6.5.2 (win64) logging started 10/25/17 17:59:24


Gurobi 6.5.2 (win64) logging started 10/25/17 17:59:25


Gurobi 6.5.2 (win64) logging started 10/25/17 17:59:26


Gurobi 6.5.2 (win64) logging started 10/25/17 17:59:27


Gurobi 6.5.2 (win64) logging started 10/25/17 17:59:28


Gurobi 6.5.2 (win64) logging started 10/25/17 17:59:30


Gurobi 6.5.2 (win64) logging started 10/25/17 17:59:31


Gurobi 6.5.2 (win64) logging started 10/25/17 17:59:32


Gurobi 6.5.2 (win64) logging started 10/25/17 17:59:34


Gurobi 6.5.2 (win64) logging started 10/25/17 17:59:35


Gurobi 6.5.2 (win64) logging started 10/25/17 17:59:36


Gurobi 6.5.2 (win64) logging started 10/25/17 17:59:37


Gurobi 6.5.2 (win64) logging started 10/25/17 17:59:39


Gurobi 6.5.2 (win64) logging started 10/25/17 17:59:39


Gurobi 6.5.2 (win64) logging started 10/25/17 17:59:41


Gurobi 6.5.2 (win64) logging started 10/25/17 17:59:42


Gurobi 6.5.2 (win64) logging started 10/25/17 17:59:44


Gurobi 6.5.2 (win64) logging started 10/25/17 17:59:45


Gurobi 6.5.2 (win64) logging started 10/25/17 17:59:46


Gurobi 6.5.2 (win64) logging started 10/25/17 17:59:47


Gurobi 6.5.2 (win64) logging started 10/25/17 17:59:48


Gurobi 6.5.2 (win64) logging started 10/25/17 17:59:49


Gurobi 6.5.2 (win64) logging started 10/25/17 17:59:51


Gurobi 6.5.2 (win64) logging started 10/25/17 17:59:56


Gurobi 6.5.2 (win64) logging started 10/25/17 18:00:45


Gurobi 6.5.2 (win64) logging started 10/25/17 18:00:47


Gurobi 6.5.2 (win64) logging started 10/25/17 18:00:48


Gurobi 6.5.2 (win64) logging started 10/25/17 18:00:50


Gurobi 6.5.2 (win64) logging started 10/25/17 18:00:52


Gurobi 6.5.2 (win64) logging started 10/25/17 18:00:55


Gurobi 6.5.2 (win64) logging started 10/25/17 18:00:57


Gurobi 6.5.2 (win64) logging started 10/25/17 18:01:01


Gurobi 6.5.2 (win64) logging started 10/25/17 18:01:02


Gurobi 6.5.2 (win64) logging started 10/25/17 18:01:06


Gurobi 6.5.2 (win64) logging started 10/25/17 18:01:07


Gurobi 6.5.2 (win64) logging started 10/25/17 18:01:11


Gurobi 6.5.2 (win64) logging started 10/25/17 18:01:12


Gurobi 6.5.2 (win64) logging started 10/25/17 18:01:16


Gurobi 6.5.2 (win64) logging started 10/25/17 18:01:17


Gurobi 6.5.2 (win64) logging started 10/25/17 18:01:20


Gurobi 6.5.2 (win64) logging started 10/25/17 18:01:24


Gurobi 6.5.2 (win64) logging started 10/25/17 18:01:26


Gurobi 6.5.2 (win64) logging started 10/25/17 18:01:30


Gurobi 6.5.2 (win64) logging started 10/25/17 18:01:33


Gurobi 6.5.2 (win64) logging started 10/25/17 18:01:37


Gurobi 6.5.2 (win64) logging started 10/25/17 18:01:38


Gurobi 6.5.2 (win64) logging started 10/25/17 18:01:42


Gurobi 6.5.2 (win64) logging started 10/25/17 18:01:44


Gurobi 6.5.2 (win64) logging started 10/25/17 18:02:13


Gurobi 6.5.2 (win64) logging started 10/25/17 18:03:37


Gurobi 6.5.2 (win64) logging started 10/25/17 18:04:27


Gurobi 6.5.2 (win64) logging started 10/25/17 18:04:43


Gurobi 6.5.2 (win64) logging started 10/25/17 18:12:10


Gurobi 6.5.2 (win64) logging started 10/25/17 18:12:30


Gurobi 6.5.2 (win64) logging started 10/25/17 18:12:32


Gurobi 6.5.2 (win64) logging started 10/25/17 18:12:35


Gurobi 6.5.2 (win64) logging started 10/25/17 18:14:01


Gurobi 6.5.2 (win64) logging started 10/25/17 18:57:38


Gurobi 6.5.2 (win64) logging started 10/25/17 18:58:56


Gurobi 6.5.2 (win64) logging started 10/25/17 18:58:58


Gurobi 6.5.2 (win64) logging started 10/25/17 18:59:00


Gurobi 6.5.2 (win64) logging started 10/25/17 18:59:43


Gurobi 6.5.2 (win64) logging started 10/26/17 17:56:04


Gurobi 6.5.2 (win64) logging started 10/26/17 18:56:12


Gurobi 6.5.2 (win64) logging started 10/26/17 18:57:21


Gurobi 6.5.2 (win64) logging started 10/26/17 18:57:23


Gurobi 6.5.2 (win64) logging started 10/26/17 18:57:26

